(set-info :source |printed by MathSAT|)
(declare-fun |.x{15}| () (Array Int Int))
(declare-fun |.x{20}| () (Array Int Int))
(declare-fun |.x{16}| () (Array Int Int))
(declare-fun |.x{21}| () (Array Int Int))
(declare-fun |.x{17}| () Int)
(declare-fun |.y{6}| () Int)
(declare-fun |.x{18}| () Int)
(declare-fun |.y{7}| () Int)
(declare-fun |.y{3}| () (Array Int Int))
(declare-fun |.x{19}| () (Array Int Int))
(declare-fun |.y{4}| () Int)
(declare-fun |.x{22}| () Int)
(declare-fun |.y{5}| () Int)
(declare-fun |.x{23}| () Int)
(declare-fun |.loc{2}| () Bool)
(declare-fun |.loc{3}| () Bool)
(declare-fun |.x{9}| () Int)
(declare-fun |.x{10}| () Int)
(declare-fun |.x{39}| () Int)
(define-fun .def_12 () Int (! |.x{17}| :next |.y{6}|))
(define-fun .def_82 () Bool (= .def_12 0))
(define-fun .def_22 () Bool (! |.loc{2}| :next |.loc{3}|))
(define-fun .def_40 () Bool (not .def_22))
(define-fun .def_83 () Bool (! (and .def_40 .def_82) :init true))
(define-fun .def_8 () (Array Int Int) (! |.x{15}| :next |.x{20}|))
(define-fun .def_77 () Bool (= .def_8 |.x{20}|))
(define-fun .def_10 () (Array Int Int) (! |.x{16}| :next |.x{21}|))
(define-fun .def_76 () Bool (= .def_10 |.x{21}|))
(define-fun .def_78 () Bool (and .def_76 .def_77))
(define-fun .def_79 () Bool (and |.loc{3}| .def_78))
(define-fun .def_14 () Int (! |.x{18}| :next |.y{7}|))
(define-fun .def_72 () Bool (= .def_14 |.x{23}|))
(define-fun .def_70 () Bool (= |.x{22}| 0))
(define-fun .def_71 () Bool (and .def_40 .def_70))
(define-fun .def_73 () Bool (and .def_71 .def_72))
(define-fun .def_33 () Bool (<= .def_14 .def_12))
(define-fun .def_74 () Bool (and .def_33 .def_73))
(define-fun .def_18 () Int (! |.y{4}| :next |.x{22}|))
(define-fun .def_20 () Int (! |.y{5}| :next |.x{23}|))
(define-fun .def_66 () Bool (<= .def_20 .def_18))
(define-fun .def_67 () Bool (not .def_66))
(define-fun .def_64 () Bool (= .def_20 |.x{23}|))
(define-fun .def_57 () Int (select .def_10 .def_18))
(define-fun .def_58 () Int (* (- 1) .def_57))
(define-fun .def_56 () Int (select .def_8 .def_18))
(define-fun .def_59 () Int (+ .def_56 .def_58))
(define-fun .def_16 () (Array Int Int) (! |.y{3}| :next |.x{19}|))
(define-fun .def_60 () (Array Int Int) (store .def_16 .def_18 .def_59))
(define-fun .def_61 () Bool (= |.x{19}| .def_60))
(define-fun .def_53 () Int (* (- 1) |.x{22}|))
(define-fun .def_54 () Int (+ .def_18 .def_53))
(define-fun .def_55 () Bool (= .def_54 (- 1)))
(define-fun .def_62 () Bool (and .def_55 .def_61))
(define-fun .def_63 () Bool (and .def_22 .def_62))
(define-fun .def_65 () Bool (and .def_63 .def_64))
(define-fun .def_68 () Bool (and .def_65 .def_67))
(define-fun .def_75 () Bool (or .def_68 .def_74))
(define-fun .def_80 () Bool (and .def_75 .def_79))
(define-fun .def_46 () Int (+ .def_12 |.x{10}|))
(define-fun .def_47 () (Array Int Int) (store .def_8 .def_12 .def_46))
(define-fun .def_48 () Bool (= |.x{20}| .def_47))
(define-fun .def_44 () Bool (= .def_14 |.y{7}|))
(define-fun .def_42 () Bool (not |.loc{3}|))
(define-fun .def_37 () Bool (<= |.x{9}| |.x{10}|))
(define-fun .def_38 () Bool (not .def_37))
(define-fun .def_34 () Bool (not .def_33))
(define-fun .def_29 () Int (+ .def_12 |.x{9}|))
(define-fun .def_30 () (Array Int Int) (store .def_10 .def_12 .def_29))
(define-fun .def_31 () Bool (= |.x{21}| .def_30))
(define-fun .def_25 () Int (* (- 1) |.y{6}|))
(define-fun .def_26 () Int (+ .def_12 .def_25))
(define-fun .def_27 () Bool (= .def_26 (- 1)))
(define-fun .def_32 () Bool (and .def_27 .def_31))
(define-fun .def_35 () Bool (and .def_32 .def_34))
(define-fun .def_39 () Bool (and .def_35 .def_38))
(define-fun .def_41 () Bool (and .def_39 .def_40))
(define-fun .def_43 () Bool (and .def_41 .def_42))
(define-fun .def_45 () Bool (and .def_43 .def_44))
(define-fun .def_49 () Bool (and .def_45 .def_48))
(define-fun .def_81 () Bool (! (or .def_49 .def_80) :trans true))
(define-fun .def_84 () Int (! |.x{39}| :next |.xpv{1}|))
(define-fun .def_89 () Bool (<= .def_84 0))
(define-fun .def_90 () Bool (not .def_89))
(define-fun .def_91 () Bool (and .def_66 .def_90))
(define-fun .def_87 () Bool (<= .def_20 .def_84))
(define-fun .def_88 () Bool (not .def_87))
(define-fun .def_92 () Bool (and .def_88 .def_91))
(define-fun .def_85 () Int (select .def_16 .def_84))
(define-fun .def_86 () Bool (<= 0 .def_85))
(define-fun .def_93 () Bool (and .def_86 .def_92))
(define-fun .def_94 () Bool (and .def_22 .def_93))
(define-fun .def_96 () Bool (! (not .def_94) :invar-property 0))
(assert true)
